p cnf 131 490
-94 -64 0
-1 -117 0
-130 -18 0
-94 -63 0
-94 -24 0
-130 -75 0
-1 -88 0
-94 -67 0
-1 -122 0
-1 -105 0
-94 -42 0
-130 -69 0
-1 -57 0
-94 -59 0
-94 -78 0
-2 -73 0
-2 -55 0
-2 -112 0
-3 -90 0
-126 -91 0
-3 -10 0
-3 -100 0
-126 -70 0
-3 -97 0
-123 -88 0
-123 -87 0
-3 -37 0
-3 -41 0
-3 -81 0
-126 -71 0
-4 -74 0
-90 -13 0
-103 -17 0
-4 -25 0
-4 -109 0
-4 -101 0
-103 -37 0
-90 -39 0
-90 -44 0
-103 -83 0
-4 -58 0
-5 -64 0
-5 -17 0
-5 -19 0
-127 -20 0
-5 -38 0
-127 -129 0
-73 -77 0
-91 -21 0
-6 -25 0
-73 -28 0
-73 -109 0
-6 -87 0
-73 -85 0
-91 -44 0
-6 -45 0
-6 -46 0
-6 -118 0
-73 -78 0
-7 -113 0
-74 -13 0
-74 -16 0
-74 -96 0
-131 -63 0
-131 -75 0
-74 -82 0
-7 -28 0
-7 -30 0
-7 -33 0
-7 -35 0
-7 -114 0
-7 -119 0
-131 -66 0
-7 -40 0
-74 -46 0
-74 -51 0
-74 -56 0
-7 -111 0
-74 -59 0
-7 -112 0
-8 -14 0
-8 -68 0
-8 -32 0
-8 -89 0
-9 -10 0
-128 -13 0
-128 -21 0
-9 -22 0
-9 -23 0
-9 -67 0
-9 -69 0
-128 -49 0
-9 -52 0
-9 -89 0
-9 -60 0
-99 -13 0
-113 -14 0
-99 -16 0
-113 -17 0
-64 -19 0
-64 -21 0
-77 -68 0
-77 -25 0
-77 -82 0
-10 -66 0
-99 -40 0
-77 -61 0
-99 -71 0
-64 -58 0
-64 -78 0
-11 -70 0
-11 -34 0
-11 -85 0
-11 -42 0
-11 -118 0
-12 -16 0
-12 -79 0
-102 -75 0
-115 -62 0
-102 -66 0
-12 -40 0
-102 -42 0
-115 -69 0
-115 -53 0
-12 -92 0
-13 -67 0
-13 -37 0
-13 -104 0
-14 -15 0
-14 -29 0
-14 -34 0
-14 -41 0
-14 -54 0
-117 -70 0
-100 -63 0
-15 -84 0
-100 -30 0
-15 -76 0
-15 -86 0
-117 -85 0
-100 -43 0
-15 -71 0
-15 -92 0
-16 -95 0
-70 -63 0
-70 -23 0
-70 -82 0
-70 -88 0
-70 -32 0
-70 -62 0
-16 -86 0
-16 -40 0
-16 -106 0
-16 -89 0
-16 -124 0
-96 -63 0
-17 -23 0
-17 -84 0
-96 -67 0
-96 -39 0
-17 -116 0
-96 -47 0
-17 -71 0
-95 -32 0
-18 -33 0
-95 -46 0
-95 -58 0
-19 -79 0
-19 -25 0
-19 -119 0
-19 -39 0
-20 -63 0
-120 -25 0
-120 -26 0
-120 -27 0
-120 -65 0
-20 -98 0
-20 -69 0
-20 -81 0
-20 -50 0
-79 -29 0
-63 -30 0
-79 -31 0
-63 -121 0
-21 -34 0
-21 -87 0
-21 -38 0
-21 -98 0
-21 -106 0
-79 -57 0
-79 -111 0
-79 -59 0
-68 -24 0
-97 -84 0
-22 -80 0
-22 -86 0
-97 -85 0
-22 -69 0
-22 -48 0
-22 -110 0
-97 -54 0
-68 -57 0
-22 -108 0
-23 -84 0
-23 -76 0
-23 -34 0
-23 -52 0
-23 -104 0
-24 -27 0
-24 -62 0
-24 -119 0
-24 -83 0
-84 -26 0
-25 -28 0
-84 -67 0
-25 -125 0
-84 -106 0
-84 -116 0
-25 -54 0
-26 -29 0
-75 -30 0
-26 -101 0
-75 -66 0
-75 -69 0
-75 -61 0
-75 -57 0
-75 -58 0
-82 -121 0
-82 -62 0
-27 -35 0
-27 -98 0
-27 -69 0
-27 -48 0
-27 -53 0
-27 -56 0
-82 -93 0
-27 -59 0
-28 -29 0
-28 -109 0
-28 -40 0
-28 -118 0
-29 -101 0
-29 -46 0
-29 -61 0
-29 -93 0
-29 -78 0
-30 -31 0
-88 -65 0
-30 -38 0
-30 -71 0
-30 -92 0
-31 -66 0
-31 -47 0
-31 -50 0
-31 -83 0
-31 -108 0
-31 -78 0
-32 -107 0
-32 -125 0
-32 -92 0
-121 -35 0
-33 -41 0
-33 -81 0
-33 -83 0
-76 -54 0
-76 -55 0
-33 -89 0
-62 -65 0
-80 -36 0
-80 -37 0
-80 -125 0
-80 -39 0
-80 -43 0
-67 -44 0
-67 -116 0
-67 -47 0
-62 -83 0
-80 -89 0
-62 -108 0
-62 -60 0
-86 -37 0
-107 -122 0
-65 -40 0
-65 -42 0
-65 -129 0
-107 -46 0
-35 -110 0
-35 -55 0
-35 -56 0
-86 -111 0
-65 -78 0
-114 -66 0
-101 -41 0
-114 -45 0
-87 -54 0
-87 -56 0
-37 -46 0
-37 -83 0
-38 -105 0
-66 -45 0
-85 -46 0
-85 -61 0
-122 -71 0
-66 -93 0
-39 -47 0
-39 -83 0
-39 -124 0
-105 -69 0
-40 -54 0
-41 -72 0
-41 -58 0
-43 -48 0
-44 -81 0
-44 -49 0
-44 -52 0
-106 -53 0
-44 -58 0
-45 -116 0
-129 -92 0
-116 -81 0
-46 -48 0
-46 -50 0
-47 -72 0
-81 -93 0
-48 -72 0
-48 -60 0
-49 -51 0
-50 -72 0
-61 -57 0
-110 -93 0
-72 -59 0
-61 -112 0
-52 -108 0
-53 -54 0
-53 -92 0
-54 -104 0
-55 -124 0
61 -98 0
61 -59 0
61 -81 0
62 -80 0
62 -36 0
62 -96 0
62 -84 0
63 -79 0
63 -97 0
63 -91 0
64 -71 0
64 -123 0
64 -13 0
65 -86 0
65 -95 0
65 -58 0
66 -85 0
66 -100 0
67 -80 0
67 -36 0
67 -41 0
68 -22 0
68 -86 0
69 -106 0
69 -46 0
69 -45 0
70 -16 0
70 -105 0
71 -104 0
71 -54 0
72 -83 0
72 -37 0
72 -4 0
73 -91 0
73 -20 0
74 -7 0
74 -42 0
75 -26 0
75 -2 0
76 -33 0
76 -57 0
77 -10 0
77 -11 0
78 -60 0
78 -102 0
79 -21 0
79 -9 0
80 -34 0
80 -14 0
81 -47 0
81 -24 0
82 -27 0
82 -53 0
83 -51 0
83 -49 0
84 -25 0
84 -19 0
85 -38 0
85 -23 0
86 -35 0
86 -52 0
87 -36 0
87 -32 0
88 -30 0
88 -31 0
89 -56 0
89 -26 0
90 -4 0
90 -59 0
90 -76 0
91 -6 0
91 -8 0
92 -60 0
92 -61 0
93 -58 0
93 -13 0
94 -1 0
94 -50 0
95 -18 0
95 -76 0
96 -17 0
96 -5 0
97 -22 0
97 -29 0
98 -41 0
98 -72 0
99 -10 0
99 -55 0
100 -15 0
100 -39 0
101 -36 0
101 -68 0
102 -12 0
102 -48 0
103 -4 0
103 -1 0
104 -56 0
104 -28 0
105 -40 0
105 -55 0
106 -44 0
106 -43 0
107 -35 0
107 -39 0
108 -59 0
108 -2 0
109 -34 0
109 -31 0
110 -51 0
110 -6 0
111 -58 0
111 -47 0
112 -60 0
112 -18 0
113 -10 0
113 -3 0
114 -36 0
114 -44 0
115 -12 0
115 -32 0
115 -88 0
116 -46 0
116 -48 0
117 -15 0
117 -50 0
118 -56 0
118 -57 0
119 -37 0
119 -42 0
120 -20 0
120 -50 0
121 -33 0
121 -18 0
122 -38 0
122 -52 0
123 -3 0
123 -77 0
124 -60 0
124 -20 0
125 -38 0
125 -74 0
126 -3 0
126 -61 0
127 -5 0
127 -42 0
128 -9 0
128 -68 0
129 -45 0
129 -43 0
130 -1 0
130 -64 0
131 -74 0
131 -82 0
